25238
121,251,414,426,463,550,611,645,647,722,732,830,843,936,1005,1143,1186,1270,1322,1361,1400,1457,1464,1794,1800,1928,1955,2081,2432,2609,2641,2686,2720,2744,2896,3021,3032,3154,3177,3199,3215,3216,3253,3277,3302,3326,3362,3382,3562,3578,3624,3795,3831,3890,4016,4061,4090,4111,4131,4139,4176,4202,4226,4231,4274,4287,4385,4466,4482,4483,4487,4544,4552,4609,4648,4750,4818,4873,4937,4975
